10
1 0 120
2 0 123
2 1 151
3 0 108
3 1 116
3 2 52
4 0 8
4 1 28
4 2 87
4 3 148
5 0 28
5 1 10
5 2 75
5 3 117
5 4 145
6 0 54
6 1 96
6 2 86
6 3 34
6 4 38
6 5 148
7 0 98
7 1 13
7 2 50
7 3 133
7 4 34
7 5 63
7 6 75
8 0 160
8 1 145
8 2 153
8 3 13
8 4 154
8 5 137
8 6 13
8 7 93
9 0 97
9 1 98
9 2 47
9 3 25
9 4 79
9 5 28
9 6 146
9 7 63
9 8 126
